77 55 39 
53 72 68 
5 58 106 
58 85 2 
115 109 71 
33 84 144 
60 72 118 
21 88 33 
85 137 55 
19 108 71 
89 150 21 
110 137 47 
59 48 14 
32 148 31 
7 29 55 
34 7 120 
104 71 109 
37 149 139 
55 6 28 
147 24 44 
109 89 99 
104 150 130 
58 104 102 
